NAME : tsp25_28.171.tour
COMMENT : Length = 171
COMMENT : Found by LKH [Keld Helsgaun]
TYPE : TOUR
DIMENSION : 25
TOUR_SECTION
1
17
15
20
16
7
23
4
10
2
21
13
3
18
19
22
12
14
8
9
6
11
5
24
25
-1
EOF
